benchmarks/bfuzz0/15092600716649233091597287982481910238.smt2
(set-logic QF_FP)
(declare-const x0 (_ FloatingPoint 8 24))
(declare-const x1 (_ FloatingPoint 8 24))
(declare-const x2 (_ FloatingPoint 8 24))
(declare-const x3 (_ FloatingPoint 8 24))
(declare-const x4 (_ FloatingPoint 8 24))
(declare-const x5 (_ FloatingPoint 8 24))
(declare-const x6 (_ FloatingPoint 8 24))
(declare-const x7 (_ FloatingPoint 8 24))
(declare-const x8 (_ FloatingPoint 8 24))
(declare-const x9 (_ FloatingPoint 8 24))
(declare-const x10 (_ FloatingPoint 8 24))
(declare-const x11 (_ FloatingPoint 8 24))
(declare-const x12 (_ FloatingPoint 8 24))
(declare-const x13 (_ FloatingPoint 8 24))
(declare-const x14 (_ FloatingPoint 8 24))
(declare-const x15 (_ FloatingPoint 8 24))
(declare-const x16 (_ FloatingPoint 8 24))
(declare-const x17 (_ FloatingPoint 8 24))
(assert (fp.geq (fp.neg x14) (fp.add RNE x3 x17)))
(assert (fp.lt (fp.neg x5) (fp.div RNE x8 x8)))
(assert (fp.geq (fp.sub RNE x3 x8) (fp.div RNE x11 x5)))
(assert (fp.gt (fp.add RNE x0 x13) (fp.mul RNE x8 x10)))
(assert (fp.geq (fp.mul RNE x14 x10) (fp.div RNE x6 x12)))
(assert (fp.leq (fp.sub RNE x15 x10) (fp.neg x15)))
(check-sat)
