db/data/15092600716649233091597287982481910238.z3.out
sat
-------------------
11.769288078
